k = 112;
b = 56;
AtomicConstraints =  [|
1, 7|
	1, 30|
	1, 31|
	1, 39|
	1, 40|
	1, 45|
	1, 46|
	2, 7|
	2, 8|
	2, 9|
	2, 10|
	2, 30|
	2, 31|
	2, 32|
	2, 33|
	2, 39|
	2, 40|
	2, 41|
	2, 42|
	2, 45|
	2, 46|
	3, 7|
	3, 8|
	3, 9|
	3, 10|
	3, 11|
	3, 30|
	3, 31|
	3, 32|
	3, 33|
	3, 34|
	3, 35|
	3, 39|
	3, 40|
	3, 41|
	3, 42|
	3, 43|
	3, 44|
	3, 45|
	3, 46|
	4, 5|
	4, 6|
	4, 7|
	4, 8|
	4, 9|
	4, 10|
	4, 11|
	4, 30|
	4, 31|
	4, 32|
	4, 33|
	4, 34|
	4, 35|
	4, 36|
	4, 37|
	4, 39|
	4, 40|
	4, 41|
	4, 42|
	4, 43|
	4, 44|
	4, 45|
	4, 46|
	5, 10|
	5, 11|
	12, 24|
	13, 6|
	13, 11|
	14, 5|
	14, 6|
	14, 9|
	14, 10|
	14, 11|
	15, 5|
	15, 6|
	15, 8|
	15, 9|
	15, 10|
	15, 11|
	16, 5|
	16, 6|
	16, 7|
	16, 8|
	16, 9|
	16, 10|
	16, 11|
	17, 5|
	17, 6|
	17, 7|
	17, 8|
	17, 9|
	17, 10|
	17, 11|
	18, 6|
	18, 24|
	19, 6|
	19, 11|
	19, 13|
	19, 24|
	20, 5|
	20, 6|
	20, 10|
	20, 11|
	20, 13|
	21, 5|
	21, 6|
	21, 9|
	21, 10|
	21, 11|
	21, 13|
	21, 14|
	22, 5|
	22, 6|
	22, 8|
	22, 9|
	22, 10|
	22, 11|
	22, 13|
	22, 14|
	22, 15|
	23, 5|
	23, 6|
	23, 7|
	23, 8|
	23, 9|
	23, 10|
	23, 11|
	23, 14|
	23, 15|
	23, 16|
	60, 5|
	60, 6|
	60, 7|
	60, 8|
	60, 9|
	60, 10|
	60, 11|
	60, 26|
	60, 27|
	60, 58|
	60, 28|
	60, 76|
	60, 77|
	60, 59|
	60, 57|
	60, 30|
	60, 31|
	60, 32|
	60, 33|
	60, 34|
	60, 35|
	60, 36|
	60, 37|
	60, 38|
	60, 39|
	60, 40|
	60, 41|
	60, 42|
	60, 43|
	60, 44|
	60, 45|
	60, 46|
	26, 5|
	26, 6|
	26, 7|
	26, 8|
	26, 9|
	26, 10|
	26, 11|
	26, 27|
	26, 58|
	26, 28|
	26, 77|
	26, 59|
	26, 57|
	26, 30|
	26, 31|
	26, 32|
	26, 33|
	26, 34|
	26, 35|
	26, 36|
	26, 37|
	26, 38|
	26, 39|
	26, 40|
	26, 41|
	26, 42|
	26, 43|
	26, 44|
	26, 45|
	26, 46|
	25, 5|
	25, 6|
	25, 7|
	25, 8|
	25, 9|
	25, 10|
	25, 11|
	25, 60|
	25, 26|
	25, 27|
	25, 58|
	25, 28|
	25, 75|
	25, 29|
	25, 76|
	25, 77|
	25, 59|
	25, 57|
	25, 30|
	25, 31|
	25, 32|
	25, 33|
	25, 34|
	25, 35|
	25, 36|
	25, 37|
	25, 38|
	25, 39|
	25, 40|
	25, 41|
	25, 42|
	25, 43|
	25, 44|
	25, 45|
	25, 46|
	27, 5|
	27, 6|
	27, 7|
	27, 8|
	27, 9|
	27, 10|
	27, 11|
	27, 58|
	27, 28|
	27, 59|
	27, 57|
	27, 30|
	27, 31|
	27, 32|
	27, 33|
	27, 34|
	27, 35|
	27, 36|
	27, 37|
	27, 38|
	27, 39|
	27, 40|
	27, 41|
	27, 42|
	27, 43|
	27, 44|
	27, 45|
	27, 46|
	58, 5|
	58, 6|
	58, 7|
	58, 8|
	58, 9|
	58, 10|
	58, 11|
	58, 28|
	58, 30|
	58, 31|
	58, 32|
	58, 33|
	58, 34|
	58, 35|
	58, 36|
	58, 37|
	58, 38|
	58, 39|
	58, 40|
	58, 41|
	58, 42|
	58, 43|
	58, 44|
	58, 45|
	58, 46|
	28, 5|
	28, 6|
	28, 7|
	28, 8|
	28, 9|
	28, 10|
	28, 11|
	28, 30|
	28, 31|
	28, 32|
	28, 33|
	28, 34|
	28, 35|
	28, 36|
	28, 37|
	28, 38|
	28, 39|
	28, 40|
	28, 41|
	28, 42|
	28, 43|
	28, 44|
	28, 45|
	28, 46|
	75, 5|
	75, 6|
	75, 7|
	75, 8|
	75, 9|
	75, 10|
	75, 11|
	75, 60|
	75, 26|
	75, 27|
	75, 58|
	75, 28|
	75, 29|
	75, 76|
	75, 77|
	75, 59|
	75, 57|
	75, 30|
	75, 31|
	75, 32|
	75, 33|
	75, 34|
	75, 35|
	75, 36|
	75, 37|
	75, 38|
	75, 39|
	75, 40|
	75, 41|
	75, 42|
	75, 43|
	75, 44|
	75, 45|
	75, 46|
	29, 5|
	29, 6|
	29, 7|
	29, 8|
	29, 9|
	29, 10|
	29, 11|
	29, 26|
	29, 27|
	29, 58|
	29, 28|
	29, 76|
	29, 77|
	29, 59|
	29, 57|
	29, 30|
	29, 31|
	29, 32|
	29, 33|
	29, 34|
	29, 35|
	29, 36|
	29, 37|
	29, 38|
	29, 39|
	29, 40|
	29, 41|
	29, 42|
	29, 43|
	29, 44|
	29, 45|
	29, 46|
	76, 5|
	76, 6|
	76, 7|
	76, 8|
	76, 9|
	76, 10|
	76, 11|
	76, 27|
	76, 58|
	76, 28|
	76, 77|
	76, 59|
	76, 57|
	76, 30|
	76, 31|
	76, 32|
	76, 33|
	76, 34|
	76, 35|
	76, 36|
	76, 37|
	76, 38|
	76, 39|
	76, 40|
	76, 41|
	76, 42|
	76, 43|
	76, 44|
	76, 45|
	76, 46|
	77, 5|
	77, 6|
	77, 7|
	77, 8|
	77, 9|
	77, 10|
	77, 11|
	77, 58|
	77, 28|
	77, 59|
	77, 57|
	77, 30|
	77, 31|
	77, 32|
	77, 33|
	77, 34|
	77, 35|
	77, 36|
	77, 37|
	77, 38|
	77, 39|
	77, 40|
	77, 41|
	77, 42|
	77, 43|
	77, 44|
	77, 45|
	77, 46|
	59, 5|
	59, 6|
	59, 7|
	59, 8|
	59, 9|
	59, 10|
	59, 11|
	59, 58|
	59, 28|
	59, 57|
	59, 30|
	59, 31|
	59, 32|
	59, 33|
	59, 34|
	59, 35|
	59, 36|
	59, 37|
	59, 38|
	59, 39|
	59, 40|
	59, 41|
	59, 42|
	59, 43|
	59, 44|
	59, 45|
	59, 46|
	57, 5|
	57, 6|
	57, 7|
	57, 8|
	57, 9|
	57, 10|
	57, 11|
	57, 58|
	57, 28|
	57, 30|
	57, 31|
	57, 32|
	57, 33|
	57, 34|
	57, 35|
	57, 36|
	57, 37|
	57, 38|
	57, 39|
	57, 40|
	57, 41|
	57, 42|
	57, 43|
	57, 44|
	57, 45|
	57, 46|
	79, 5|
	79, 6|
	79, 7|
	79, 8|
	79, 9|
	79, 10|
	79, 11|
	79, 60|
	79, 26|
	79, 27|
	79, 58|
	79, 28|
	79, 75|
	79, 29|
	79, 76|
	79, 77|
	79, 59|
	79, 57|
	79, 30|
	79, 31|
	79, 32|
	79, 33|
	79, 34|
	79, 35|
	79, 36|
	79, 37|
	79, 38|
	79, 39|
	79, 40|
	79, 41|
	79, 42|
	79, 43|
	79, 44|
	79, 45|
	79, 46|
	31, 7|
	31, 8|
	31, 30|
	31, 39|
	31, 40|
	31, 41|
	32, 7|
	32, 8|
	32, 9|
	32, 39|
	32, 40|
	32, 41|
	32, 42|
	33, 7|
	33, 8|
	33, 9|
	33, 10|
	33, 40|
	33, 41|
	33, 42|
	33, 43|
	34, 7|
	34, 8|
	34, 9|
	34, 10|
	34, 11|
	34, 41|
	34, 42|
	34, 43|
	34, 44|
	35, 5|
	35, 7|
	35, 8|
	35, 9|
	35, 10|
	35, 11|
	35, 42|
	35, 43|
	35, 44|
	36, 5|
	36, 6|
	36, 7|
	36, 8|
	36, 9|
	36, 10|
	36, 11|
	36, 43|
	36, 44|
	37, 5|
	37, 6|
	37, 7|
	37, 8|
	37, 9|
	37, 10|
	37, 11|
	37, 44|
	38, 5|
	38, 6|
	38, 7|
	38, 8|
	38, 9|
	38, 10|
	38, 11|
	39, 7|
	40, 7|
	40, 8|
	41, 7|
	41, 8|
	41, 9|
	42, 7|
	42, 8|
	42, 9|
	42, 10|
	43, 7|
	43, 8|
	43, 9|
	43, 10|
	43, 11|
	44, 5|
	44, 7|
	44, 8|
	44, 9|
	44, 10|
	44, 11|
	45, 30|
	45, 39|
	46, 7|
	46, 30|
	46, 39|
	46, 40|
	47, 5|
	47, 6|
	47, 7|
	47, 8|
	47, 9|
	47, 10|
	47, 11|
	47, 12|
	47, 13|
	47, 14|
	47, 15|
	47, 16|
	47, 17|
	47, 18|
	47, 19|
	47, 20|
	47, 21|
	47, 22|
	47, 23|
	47, 24|
	47, 48|
	47, 51|
	47, 83|
	47, 80|
	47, 67|
	47, 63|
	47, 99|
	47, 91|
	47, 64|
	47, 88|
	47, 101|
	47, 68|
	47, 65|
	47, 66|
	47, 82|
	47, 84|
	47, 98|
	48, 5|
	48, 6|
	48, 7|
	48, 8|
	48, 9|
	48, 10|
	48, 11|
	48, 12|
	48, 13|
	48, 14|
	48, 15|
	48, 16|
	48, 17|
	48, 18|
	48, 19|
	48, 20|
	48, 21|
	48, 22|
	48, 23|
	48, 24|
	48, 51|
	48, 83|
	48, 80|
	48, 67|
	48, 63|
	48, 99|
	48, 91|
	48, 64|
	48, 88|
	48, 101|
	48, 68|
	48, 65|
	48, 66|
	48, 82|
	48, 84|
	48, 98|
	49, 5|
	49, 6|
	49, 7|
	49, 8|
	49, 9|
	49, 10|
	49, 11|
	49, 12|
	49, 13|
	49, 14|
	49, 15|
	49, 16|
	49, 17|
	49, 18|
	49, 19|
	49, 20|
	49, 21|
	49, 22|
	49, 23|
	49, 24|
	49, 47|
	49, 48|
	49, 51|
	49, 55|
	49, 56|
	49, 83|
	49, 80|
	49, 67|
	49, 63|
	49, 107|
	49, 81|
	49, 99|
	49, 91|
	49, 74|
	49, 64|
	49, 88|
	49, 94|
	49, 86|
	49, 62|
	49, 101|
	49, 68|
	49, 65|
	49, 66|
	49, 82|
	49, 84|
	49, 98|
	50, 5|
	50, 6|
	50, 7|
	50, 8|
	50, 9|
	50, 10|
	50, 11|
	50, 12|
	50, 13|
	50, 14|
	50, 15|
	50, 16|
	50, 17|
	50, 18|
	50, 19|
	50, 20|
	50, 21|
	50, 22|
	50, 23|
	50, 24|
	50, 47|
	50, 48|
	50, 49|
	50, 51|
	50, 54|
	50, 55|
	50, 56|
	50, 83|
	50, 80|
	50, 67|
	50, 63|
	50, 99|
	50, 91|
	50, 64|
	50, 88|
	50, 101|
	50, 68|
	50, 65|
	50, 66|
	50, 82|
	50, 84|
	50, 98|
	51, 5|
	51, 6|
	51, 7|
	51, 8|
	51, 9|
	51, 10|
	51, 11|
	51, 12|
	51, 13|
	51, 14|
	51, 15|
	51, 16|
	51, 17|
	51, 18|
	51, 19|
	51, 20|
	51, 21|
	51, 22|
	51, 23|
	51, 24|
	51, 83|
	51, 80|
	51, 67|
	51, 63|
	51, 107|
	51, 81|
	51, 99|
	51, 91|
	51, 74|
	51, 64|
	51, 88|
	51, 94|
	51, 86|
	51, 62|
	51, 101|
	51, 68|
	51, 65|
	51, 66|
	51, 82|
	51, 84|
	51, 98|
	52, 5|
	52, 6|
	52, 7|
	52, 8|
	52, 9|
	52, 10|
	52, 11|
	52, 12|
	52, 13|
	52, 14|
	52, 15|
	52, 16|
	52, 17|
	52, 18|
	52, 19|
	52, 20|
	52, 21|
	52, 22|
	52, 23|
	52, 24|
	52, 47|
	52, 48|
	52, 49|
	52, 50|
	52, 51|
	52, 53|
	52, 54|
	52, 55|
	52, 56|
	52, 83|
	52, 80|
	52, 67|
	52, 63|
	52, 107|
	52, 81|
	52, 99|
	52, 91|
	52, 74|
	52, 64|
	52, 106|
	52, 88|
	52, 85|
	52, 94|
	52, 86|
	52, 72|
	52, 62|
	52, 104|
	52, 105|
	52, 89|
	52, 90|
	52, 78|
	52, 101|
	52, 61|
	52, 100|
	52, 102|
	52, 69|
	52, 71|
	52, 68|
	52, 65|
	52, 66|
	52, 82|
	52, 84|
	52, 98|
	53, 5|
	53, 6|
	53, 7|
	53, 8|
	53, 9|
	53, 10|
	53, 11|
	53, 12|
	53, 13|
	53, 14|
	53, 15|
	53, 16|
	53, 17|
	53, 18|
	53, 19|
	53, 20|
	53, 21|
	53, 22|
	53, 23|
	53, 24|
	53, 47|
	53, 48|
	53, 49|
	53, 50|
	53, 51|
	53, 54|
	53, 55|
	53, 56|
	53, 83|
	53, 80|
	53, 67|
	53, 63|
	53, 107|
	53, 81|
	53, 99|
	53, 91|
	53, 74|
	53, 64|
	53, 106|
	53, 88|
	53, 85|
	53, 94|
	53, 86|
	53, 72|
	53, 62|
	53, 104|
	53, 105|
	53, 89|
	53, 90|
	53, 78|
	53, 101|
	53, 61|
	53, 100|
	53, 102|
	53, 69|
	53, 71|
	53, 68|
	53, 65|
	53, 66|
	53, 82|
	53, 84|
	53, 98|
	54, 5|
	54, 6|
	54, 7|
	54, 8|
	54, 9|
	54, 10|
	54, 11|
	54, 12|
	54, 13|
	54, 14|
	54, 15|
	54, 16|
	54, 17|
	54, 18|
	54, 19|
	54, 20|
	54, 21|
	54, 22|
	54, 23|
	54, 24|
	54, 47|
	54, 48|
	54, 51|
	54, 55|
	54, 56|
	54, 83|
	54, 80|
	54, 67|
	54, 63|
	54, 99|
	54, 91|
	54, 64|
	54, 88|
	54, 101|
	54, 68|
	54, 65|
	54, 66|
	54, 82|
	54, 84|
	54, 98|
	55, 5|
	55, 6|
	55, 7|
	55, 8|
	55, 9|
	55, 10|
	55, 11|
	55, 12|
	55, 13|
	55, 14|
	55, 15|
	55, 16|
	55, 17|
	55, 18|
	55, 19|
	55, 20|
	55, 21|
	55, 22|
	55, 23|
	55, 24|
	55, 47|
	55, 48|
	55, 51|
	55, 56|
	55, 83|
	55, 80|
	55, 67|
	55, 63|
	55, 99|
	55, 91|
	55, 64|
	55, 88|
	55, 101|
	55, 68|
	55, 65|
	55, 66|
	55, 82|
	55, 84|
	55, 98|
	56, 5|
	56, 6|
	56, 7|
	56, 8|
	56, 9|
	56, 10|
	56, 11|
	56, 12|
	56, 13|
	56, 14|
	56, 15|
	56, 16|
	56, 17|
	56, 18|
	56, 19|
	56, 20|
	56, 21|
	56, 22|
	56, 23|
	56, 24|
	56, 47|
	56, 48|
	56, 51|
	56, 83|
	56, 80|
	56, 67|
	56, 63|
	56, 99|
	56, 91|
	56, 64|
	56, 88|
	56, 101|
	56, 68|
	56, 65|
	56, 66|
	56, 82|
	56, 84|
	56, 98|
	80, 67|
	80, 63|
	80, 74|
	80, 64|
	80, 65|
	80, 66|
	67, 63|
	67, 64|
	67, 66|
	107, 80|
	107, 67|
	107, 63|
	107, 81|
	107, 99|
	107, 91|
	107, 74|
	107, 64|
	107, 85|
	107, 94|
	107, 86|
	107, 72|
	107, 62|
	107, 101|
	107, 68|
	107, 65|
	107, 66|
	107, 84|
	107, 98|
	81, 80|
	81, 67|
	81, 63|
	81, 99|
	81, 91|
	81, 74|
	81, 64|
	81, 94|
	81, 86|
	81, 72|
	81, 62|
	81, 68|
	81, 65|
	81, 66|
	81, 98|
	83, 80|
	83, 67|
	83, 63|
	83, 88|
	83, 101|
	83, 68|
	83, 65|
	83, 66|
	83, 84|
	83, 98|
	99, 80|
	99, 67|
	99, 63|
	99, 91|
	99, 74|
	99, 64|
	99, 86|
	99, 72|
	99, 62|
	99, 65|
	99, 66|
	91, 67|
	91, 63|
	91, 74|
	91, 64|
	91, 72|
	91, 62|
	91, 66|
	74, 63|
	74, 64|
	74, 62|
	106, 80|
	106, 67|
	106, 63|
	106, 81|
	106, 99|
	106, 91|
	106, 74|
	106, 64|
	106, 85|
	106, 94|
	106, 86|
	106, 72|
	106, 62|
	106, 68|
	106, 65|
	106, 66|
	106, 98|
	85, 80|
	85, 67|
	85, 63|
	85, 99|
	85, 91|
	85, 74|
	85, 64|
	85, 94|
	85, 86|
	85, 72|
	85, 62|
	85, 65|
	85, 66|
	94, 67|
	94, 63|
	94, 91|
	94, 74|
	94, 64|
	94, 86|
	94, 72|
	94, 62|
	94, 66|
	86, 63|
	86, 74|
	86, 64|
	86, 72|
	86, 62|
	72, 64|
	72, 62|
	88, 80|
	88, 67|
	88, 63|
	88, 101|
	88, 68|
	88, 65|
	88, 66|
	88, 98|
	104, 80|
	104, 67|
	104, 63|
	104, 99|
	104, 91|
	104, 74|
	104, 64|
	104, 94|
	104, 86|
	104, 72|
	104, 62|
	104, 105|
	104, 89|
	104, 90|
	104, 78|
	104, 61|
	104, 112|
	104, 100|
	104, 102|
	104, 69|
	104, 71|
	104, 65|
	104, 66|
	105, 67|
	105, 63|
	105, 91|
	105, 74|
	105, 64|
	105, 86|
	105, 72|
	105, 62|
	105, 89|
	105, 90|
	105, 78|
	105, 61|
	105, 100|
	105, 102|
	105, 69|
	105, 71|
	105, 66|
	89, 63|
	89, 74|
	89, 64|
	89, 72|
	89, 62|
	89, 90|
	89, 78|
	89, 61|
	89, 102|
	89, 69|
	89, 71|
	90, 64|
	90, 62|
	90, 78|
	90, 61|
	90, 69|
	90, 71|
	78, 61|
	78, 71|
	109, 67|
	109, 63|
	109, 91|
	109, 74|
	109, 64|
	109, 94|
	109, 86|
	109, 72|
	109, 62|
	109, 105|
	109, 89|
	109, 90|
	109, 78|
	109, 61|
	109, 112|
	109, 100|
	109, 102|
	109, 69|
	109, 71|
	109, 110|
	109, 95|
	109, 92|
	109, 97|
	109, 73|
	109, 65|
	109, 66|
	112, 63|
	112, 74|
	112, 64|
	112, 86|
	112, 72|
	112, 62|
	112, 89|
	112, 90|
	112, 78|
	112, 61|
	112, 100|
	112, 102|
	112, 69|
	112, 71|
	112, 95|
	112, 92|
	112, 97|
	112, 73|
	112, 66|
	100, 64|
	100, 72|
	100, 62|
	100, 90|
	100, 78|
	100, 61|
	100, 102|
	100, 69|
	100, 71|
	100, 92|
	100, 97|
	100, 73|
	102, 62|
	102, 78|
	102, 61|
	102, 69|
	102, 71|
	102, 97|
	102, 73|
	101, 80|
	101, 67|
	101, 63|
	101, 68|
	101, 65|
	101, 66|
	69, 61|
	69, 71|
	69, 73|
	111, 63|
	111, 74|
	111, 64|
	111, 86|
	111, 72|
	111, 62|
	111, 89|
	111, 90|
	111, 78|
	111, 61|
	111, 112|
	111, 100|
	111, 102|
	111, 69|
	111, 71|
	111, 110|
	111, 95|
	111, 92|
	111, 97|
	111, 73|
	111, 103|
	111, 87|
	111, 93|
	111, 96|
	111, 70|
	111, 66|
	110, 64|
	110, 72|
	110, 62|
	110, 90|
	110, 78|
	110, 61|
	110, 100|
	110, 102|
	110, 69|
	110, 71|
	110, 95|
	110, 92|
	110, 97|
	110, 73|
	110, 87|
	110, 93|
	110, 96|
	110, 70|
	95, 62|
	95, 78|
	95, 61|
	95, 102|
	95, 69|
	95, 71|
	95, 92|
	95, 97|
	95, 73|
	95, 93|
	95, 96|
	95, 70|
	92, 61|
	92, 69|
	92, 71|
	92, 97|
	92, 73|
	92, 96|
	92, 70|
	97, 71|
	97, 73|
	97, 70|
	108, 63|
	108, 74|
	108, 64|
	108, 72|
	108, 62|
	108, 90|
	108, 78|
	108, 61|
	108, 100|
	108, 102|
	108, 69|
	108, 71|
	108, 110|
	108, 95|
	108, 92|
	108, 97|
	108, 73|
	108, 103|
	108, 87|
	108, 93|
	108, 96|
	108, 70|
	103, 64|
	103, 62|
	103, 78|
	103, 61|
	103, 102|
	103, 69|
	103, 71|
	103, 95|
	103, 92|
	103, 97|
	103, 73|
	103, 87|
	103, 93|
	103, 96|
	103, 70|
	68, 67|
	68, 63|
	68, 65|
	68, 66|
	87, 61|
	87, 69|
	87, 71|
	87, 92|
	87, 97|
	87, 73|
	87, 93|
	87, 96|
	87, 70|
	93, 71|
	93, 97|
	93, 73|
	93, 96|
	93, 70|
	96, 73|
	96, 70|
	65, 63|
	65, 66|
	82, 80|
	82, 67|
	82, 63|
	82, 81|
	82, 99|
	82, 91|
	82, 74|
	82, 64|
	82, 88|
	82, 101|
	82, 68|
	82, 65|
	82, 66|
	82, 84|
	82, 98|
	84, 80|
	84, 67|
	84, 63|
	84, 99|
	84, 91|
	84, 74|
	84, 64|
	84, 101|
	84, 68|
	84, 65|
	84, 66|
	84, 98|
	98, 80|
	98, 67|
	98, 63|
	98, 91|
	98, 74|
	98, 64|
	98, 68|
	98, 65|
	98, 66|];
DisjunctiveConstraints =  [|1, 10, 66, 1|
	1, 32, 88, 1|
	1, 39, 1, 95|
	1, 41, 97, 1|
	1, 46, 1, 102|
	2, 3, 2, 1|
	2, 5, 61, 2|
	2, 8, 2, 64|
	2, 32, 2, 88|
	2, 34, 90, 2|
	2, 41, 2, 97|
	2, 43, 99, 2|
	3, 4, 3, 2|
	3, 6, 62, 3|
	3, 10, 3, 66|
	3, 34, 3, 90|
	3, 36, 92, 3|
	3, 43, 3, 99|
	4, 5, 4, 61|
	4, 36, 4, 92|
	4, 38, 94, 4|
	8, 9, 8, 7|
	9, 10, 9, 8|
	10, 11, 10, 9|
	14, 13, 14, 15|
	15, 14, 15, 16|
	16, 15, 16, 17|
	18, 12, 18, 19|
	19, 18, 19, 20|
	20, 19, 20, 21|
	21, 20, 21, 22|
	22, 21, 22, 23|
	60, 17, 73, 60|
	26, 17, 73, 26|
	27, 17, 73, 27|
	58, 17, 73, 58|
	28, 17, 73, 28|
	79, 17, 73, 79|
	79, 28, 79, 84|
	31, 7, 31, 63|
	31, 9, 65, 31|
	31, 32, 31, 46|
	32, 8, 32, 64|
	32, 10, 66, 32|
	32, 33, 32, 31|
	30, 7, 63, 30|
	33, 9, 33, 65|
	33, 11, 67, 33|
	33, 34, 33, 32|
	34, 5, 61, 34|
	34, 10, 34, 66|
	34, 35, 34, 33|
	35, 11, 35, 67|
	35, 36, 35, 34|
	36, 5, 36, 61|
	36, 6, 62, 36|
	36, 37, 36, 35|
	37, 38, 37, 36|
	38, 6, 38, 62|
	39, 8, 64, 39|
	39, 40, 39, 30|
	40, 7, 40, 63|
	40, 9, 65, 40|
	40, 41, 40, 39|
	41, 8, 41, 64|
	41, 10, 66, 41|
	41, 42, 41, 40|
	42, 9, 42, 65|
	42, 11, 67, 42|
	42, 43, 42, 41|
	43, 5, 61, 43|
	43, 10, 43, 66|
	43, 44, 43, 42|
	44, 11, 44, 67|
	45, 7, 63, 45|
	46, 8, 64, 46|
	46, 31, 46, 45|
	47, 7, 47, 63|
	47, 11, 47, 67|
	47, 27, 47, 83|
	47, 42, 47, 98|
	47, 51, 107, 47|
	47, 106, 50, 47|
	47, 85, 29, 47|
	47, 94, 38, 47|
	47, 86, 30, 47|
	47, 72, 16, 47|
	47, 62, 6, 47|
	47, 68, 47, 12|
	48, 7, 48, 63|
	48, 11, 48, 67|
	48, 27, 48, 83|
	48, 42, 48, 98|
	48, 107, 51, 48|
	48, 106, 50, 48|
	48, 85, 29, 48|
	48, 94, 38, 48|
	48, 86, 30, 48|
	48, 72, 16, 48|
	48, 62, 6, 48|
	48, 68, 48, 12|
	49, 8, 49, 64|
	49, 24, 49, 80|
	49, 35, 49, 91|
	49, 43, 49, 99|
	49, 107, 49, 51|
	49, 89, 33, 49|
	49, 90, 34, 49|
	49, 78, 22, 49|
	49, 61, 5, 49|
	50, 7, 50, 63|
	50, 11, 50, 67|
	50, 26, 50, 82|
	50, 27, 50, 83|
	50, 28, 50, 84|
	50, 42, 50, 98|
	50, 47, 50, 103|
	50, 48, 50, 104|
	50, 51, 107, 50|
	50, 68, 50, 12|
	51, 8, 51, 64|
	51, 24, 51, 80|
	51, 26, 51, 82|
	51, 28, 51, 84|
	51, 106, 50, 51|
	51, 85, 29, 51|
	51, 94, 38, 51|
	52, 22, 52, 78|
	52, 33, 52, 89|
	52, 34, 52, 90|
	52, 44, 52, 100|
	52, 46, 52, 102|
	53, 22, 53, 78|
	53, 33, 53, 89|
	53, 34, 53, 90|
	53, 46, 53, 102|
	53, 108, 52, 53|
	53, 103, 47, 53|
	54, 7, 54, 63|
	54, 11, 54, 67|
	54, 27, 54, 83|
	54, 28, 54, 84|
	54, 42, 54, 98|
	54, 47, 54, 103|
	54, 48, 54, 104|
	54, 51, 107, 54|
	54, 106, 50, 54|
	54, 68, 54, 12|
	55, 7, 55, 63|
	55, 11, 55, 67|
	55, 27, 55, 83|
	55, 42, 55, 98|
	55, 48, 55, 104|
	55, 51, 107, 55|
	55, 106, 50, 55|
	55, 85, 29, 55|
	55, 68, 55, 12|
	56, 7, 56, 63|
	56, 11, 56, 67|
	56, 27, 56, 83|
	56, 42, 56, 98|
	56, 48, 56, 104|
	56, 51, 107, 56|
	56, 106, 50, 56|
	56, 85, 29, 56|
	56, 94, 38, 56|
	56, 86, 30, 56|
	56, 68, 56, 12|
	80, 91, 80, 68|
	67, 74, 67, 65|
	63, 64, 63, 66|
	107, 106, 107, 82|
	81, 85, 81, 84|
	99, 94, 99, 98|
	91, 86, 91, 80|
	74, 72, 74, 67|
	64, 62, 64, 63|
	106, 104, 106, 107|
	85, 105, 85, 81|
	94, 89, 94, 99|
	86, 90, 86, 91|
	72, 78, 72, 74|
	62, 61, 62, 64|
	104, 109, 104, 106|
	105, 112, 105, 85|
	89, 100, 89, 94|
	90, 102, 90, 86|
	78, 69, 78, 72|
	61, 71, 61, 62|
	109, 111, 109, 104|
	112, 110, 112, 105|
	100, 95, 100, 89|
	102, 92, 102, 90|
	69, 97, 69, 78|
	71, 73, 71, 61|
	111, 108, 111, 109|
	110, 103, 110, 112|
	95, 87, 95, 100|
	92, 93, 92, 102|
	97, 96, 97, 69|
	73, 70, 73, 71|
	82, 107, 82, 83|
	84, 81, 84, 88|
	98, 99, 98, 101|];
SoftAtomicConstraints =  [|
2, 1|
3, 2|
4, 3|
6, 5|
8, 7|
9, 8|
10, 9|
11, 10|
24, 13|
13, 14|
14, 15|
15, 16|
16, 17|
12, 18|
18, 19|
19, 20|
20, 21|
21, 22|
22, 23|
79, 25|
60, 29|
39, 30|
32, 31|
33, 32|
34, 33|
35, 34|
36, 35|
37, 36|
38, 37|
40, 39|
41, 40|
42, 41|
43, 42|
44, 43|
46, 45|
31, 46|
49, 54|
71, 61|
61, 62|
64, 63|
62, 64|
67, 65|
63, 66|
74, 67|
80, 68|
97, 69|
73, 71|
78, 72|
70, 73|
72, 74|
26, 76|
27, 77|
69, 78|
91, 80|
85, 81|
107, 82|
82, 83|
81, 84|
105, 85|
90, 86|
84, 88|
100, 89|
102, 90|
86, 91|
93, 92|
89, 94|
87, 95|
96, 97|
99, 98|
94, 99|
95, 100|
98, 101|
92, 102|
109, 104|
112, 105|
104, 106|
106, 107|
111, 109|
103, 110|
108, 111|
110, 112|];
DirectSuccessors =  [];
